c ind 10 100 103 106 109 112 115 118 121 221 0
c ind 225 229 234 239 244 249 254 259 264 269 0
c ind 274 279 28 284 289 294 31 32 34 37 0
c ind 40 43 46 49 5 52 549 55 551 553 0
c ind 555 557 559 561 563 565 567 569 571 573 0
c ind 575 577 579 58 6 61 64 67 70 73 0
c ind 76 79 82 85 88 9 91 94 97 0
p cnf 579 1815
-1 -2 202 0
-1 2 533 0
-10 0
-101 -102 -104 0
-101 102 104 0
-102 -103 -32 0
-102 103 32 0
-104 97 98 0
-105 -106 107 0
-105 -107 106 0
-107 -108 -110 0
-107 108 110 0
-108 -109 -32 0
-108 109 32 0
-11 -12 0
-110 103 104 0
-111 -112 113 0
-111 -113 112 0
-113 -114 -116 0
-113 114 116 0
-114 -115 -32 0
-114 115 32 0
-116 109 110 0
-117 -118 119 0
-117 -119 118 0
-119 -120 -122 0
-119 120 122 0
-12 117 0
-12 13 0
-120 -121 -32 0
-120 121 32 0
-122 115 116 0
-123 -124 0
-124 125 0
-124 198 0
-125 126 0
-125 194 0
-126 127 0
-126 190 0
-127 128 0
-127 186 0
-128 129 0
-128 182 0
-129 130 0
-129 178 0
-13 111 0
-13 14 0
-130 131 0
-130 174 0
-131 132 0
-131 170 0
-132 133 0
-132 166 0
-133 134 0
-133 162 0
-134 135 0
-134 158 0
-135 136 0
-135 154 0
-136 137 0
-136 150 0
-137 138 0
-137 146 0
-138 139 0
-138 142 0
-139 -140 28 0
-139 -28 140 0
-14 105 0
-14 15 0
-140 -141 -10 0
-140 141 10 0
-141 -29 -32 0
-141 29 32 0
-142 -143 34 0
-142 -34 143 0
-143 -144 -145 0
-143 144 145 0
-144 -35 -10 0
-144 35 10 0
-145 29 10 0
-146 -147 40 0
-146 -40 147 0
-147 -148 -149 0
-147 148 149 0
-148 -41 -10 0
-148 41 10 0
-149 145 0
-149 35 0
-15 16 0
-15 99 0
-150 -151 46 0
-150 -46 151 0
-151 -152 -153 0
-151 152 153 0
-152 -47 -10 0
-152 47 10 0
-153 149 0
-153 41 0
-154 -155 52 0
-154 -52 155 0
-155 -156 -157 0
-155 156 157 0
-156 -53 -10 0
-156 53 10 0
-157 153 0
-157 47 0
-158 -159 58 0
-158 -58 159 0
-159 -160 -161 0
-159 160 161 0
-16 17 0
-16 93 0
-160 -59 -10 0
-160 59 10 0
-161 157 0
-161 53 0
-162 -163 64 0
-162 -64 163 0
-163 -164 -165 0
-163 164 165 0
-164 -65 -10 0
-164 65 10 0
-165 161 0
-165 59 0
-166 -167 70 0
-166 -70 167 0
-167 -168 -169 0
-167 168 169 0
-168 -71 -10 0
-168 71 10 0
-169 165 0
-169 65 0
-17 18 0
-17 87 0
-170 -171 76 0
-170 -76 171 0
-171 -172 -173 0
-171 172 173 0
-172 -77 -10 0
-172 77 10 0
-173 169 0
-173 71 0
-174 -175 82 0
-174 -82 175 0
-175 -176 -177 0
-175 176 177 0
-176 -83 -10 0
-176 83 10 0
-177 173 0
-177 77 0
-178 -179 88 0
-178 -88 179 0
-179 -180 -181 0
-179 180 181 0
-18 19 0
-18 81 0
-180 -89 -10 0
-180 89 10 0
-181 177 0
-181 83 0
-182 -183 94 0
-182 -94 183 0
-183 -184 -185 0
-183 184 185 0
-184 -95 -10 0
-184 95 10 0
-185 181 0
-185 89 0
-186 -100 187 0
-186 -187 100 0
-187 -188 -189 0
-187 188 189 0
-188 -101 -10 0
-188 101 10 0
-189 185 0
-189 95 0
-19 20 0
-19 75 0
-190 -106 191 0
-190 -191 106 0
-191 -192 -193 0
-191 192 193 0
-192 -107 -10 0
-192 107 10 0
-193 101 0
-193 189 0
-194 -112 195 0
-194 -195 112 0
-195 -196 -197 0
-195 196 197 0
-196 -113 -10 0
-196 113 10 0
-197 107 0
-197 193 0
-198 -118 199 0
-198 -199 118 0
-199 -200 -201 0
-199 200 201 0
-2 3 7 0
-20 21 0
-20 69 0
-200 -119 -10 0
-200 119 10 0
-201 113 0
-201 197 0
-202 -203 204 0
-202 203 376 0
-203 -10 5 0
-203 -5 10 0
-204 -8 205 0
-204 8 298 0
-205 206 0
-205 293 0
-206 207 0
-206 288 0
-207 208 0
-207 283 0
-208 209 0
-208 278 0
-209 210 0
-209 273 0
-21 22 0
-21 63 0
-210 211 0
-210 268 0
-211 212 0
-211 263 0
-212 213 0
-212 258 0
-213 214 0
-213 253 0
-214 215 0
-214 248 0
-215 216 0
-215 243 0
-216 217 0
-216 238 0
-217 218 0
-217 233 0
-218 219 0
-218 228 0
-219 220 0
-219 224 0
-22 23 0
-22 57 0
-220 -221 222 0
-220 -222 221 0
-222 -223 -10 0
-222 223 10 0
-223 -32 -29 0
-223 32 29 0
-224 -225 226 0
-224 -226 225 0
-226 -227 -145 0
-226 227 145 0
-227 -32 -35 0
-227 32 35 0
-228 -229 230 0
-228 -230 229 0
-23 24 0
-23 51 0
-230 -231 -232 0
-230 231 232 0
-231 -32 -41 0
-231 32 41 0
-232 35 145 0
-233 -234 235 0
-233 -235 234 0
-235 -236 -237 0
-235 236 237 0
-236 -32 -47 0
-236 32 47 0
-237 41 232 0
-238 -239 240 0
-238 -240 239 0
-24 25 0
-24 45 0
-240 -241 -242 0
-240 241 242 0
-241 -32 -53 0
-241 32 53 0
-242 47 237 0
-243 -244 245 0
-243 -245 244 0
-245 -246 -247 0
-245 246 247 0
-246 -32 -59 0
-246 32 59 0
-247 53 242 0
-248 -249 250 0
-248 -250 249 0
-25 26 0
-25 39 0
-250 -251 -252 0
-250 251 252 0
-251 -32 -65 0
-251 32 65 0
-252 59 247 0
-253 -254 255 0
-253 -255 254 0
-255 -256 -257 0
-255 256 257 0
-256 -32 -71 0
-256 32 71 0
-257 65 252 0
-258 -259 260 0
-258 -260 259 0
-26 27 0
-26 33 0
-260 -261 -262 0
-260 261 262 0
-261 -32 -77 0
-261 32 77 0
-262 71 257 0
-263 -264 265 0
-263 -265 264 0
-265 -266 -267 0
-265 266 267 0
-266 -32 -83 0
-266 32 83 0
-267 77 262 0
-268 -269 270 0
-268 -270 269 0
-27 -28 29 0
-27 -29 28 0
-270 -271 -272 0
-270 271 272 0
-271 -32 -89 0
-271 32 89 0
-272 83 267 0
-273 -274 275 0
-273 -275 274 0
-275 -276 -277 0
-275 276 277 0
-276 -32 -95 0
-276 32 95 0
-277 89 272 0
-278 -279 280 0
-278 -280 279 0
-280 -281 -282 0
-280 281 282 0
-281 -32 -101 0
-281 32 101 0
-282 95 277 0
-283 -284 285 0
-283 -285 284 0
-285 -286 -287 0
-285 286 287 0
-286 -32 -107 0
-286 32 107 0
-287 101 282 0
-288 -289 290 0
-288 -290 289 0
-29 -30 -10 0
-29 30 10 0
-290 -291 -292 0
-290 291 292 0
-291 -32 -113 0
-291 32 113 0
-292 107 287 0
-293 -294 295 0
-293 -295 294 0
-295 -296 -297 0
-295 296 297 0
-296 -32 -119 0
-296 32 119 0
-297 113 292 0
-298 299 0
-298 372 0
-299 300 0
-299 368 0
-3 -4 0
-30 -31 -32 0
-30 31 32 0
-300 301 0
-300 364 0
-301 302 0
-301 360 0
-302 303 0
-302 356 0
-303 304 0
-303 352 0
-304 305 0
-304 348 0
-305 306 0
-305 344 0
-306 307 0
-306 340 0
-307 308 0
-307 336 0
-308 309 0
-308 332 0
-309 310 0
-309 328 0
-310 311 0
-310 324 0
-311 312 0
-311 320 0
-312 313 0
-312 316 0
-313 -221 314 0
-313 -314 221 0
-314 -315 -10 0
-314 315 10 0
-315 -32 -140 0
-315 32 140 0
-316 -225 317 0
-316 -317 225 0
-317 -318 -319 0
-317 318 319 0
-318 -32 -143 0
-318 32 143 0
-319 140 10 0
-320 -229 321 0
-320 -321 229 0
-321 -322 -323 0
-321 322 323 0
-322 -32 -147 0
-322 32 147 0
-323 143 319 0
-324 -234 325 0
-324 -325 234 0
-325 -326 -327 0
-325 326 327 0
-326 -32 -151 0
-326 32 151 0
-327 147 323 0
-328 -239 329 0
-328 -329 239 0
-329 -330 -331 0
-329 330 331 0
-33 -34 35 0
-33 -35 34 0
-330 -32 -155 0
-330 32 155 0
-331 151 327 0
-332 -244 333 0
-332 -333 244 0
-333 -334 -335 0
-333 334 335 0
-334 -32 -159 0
-334 32 159 0
-335 155 331 0
-336 -249 337 0
-336 -337 249 0
-337 -338 -339 0
-337 338 339 0
-338 -32 -163 0
-338 32 163 0
-339 159 335 0
-340 -254 341 0
-340 -341 254 0
-341 -342 -343 0
-341 342 343 0
-342 -32 -167 0
-342 32 167 0
-343 163 339 0
-344 -259 345 0
-344 -345 259 0
-345 -346 -347 0
-345 346 347 0
-346 -32 -171 0
-346 32 171 0
-347 167 343 0
-348 -264 349 0
-348 -349 264 0
-349 -350 -351 0
-349 350 351 0
-35 -36 -38 0
-35 36 38 0
-350 -32 -175 0
-350 32 175 0
-351 171 347 0
-352 -269 353 0
-352 -353 269 0
-353 -354 -355 0
-353 354 355 0
-354 -32 -179 0
-354 32 179 0
-355 175 351 0
-356 -274 357 0
-356 -357 274 0
-357 -358 -359 0
-357 358 359 0
-358 -32 -183 0
-358 32 183 0
-359 179 355 0
-36 -37 -32 0
-36 37 32 0
-360 -279 361 0
-360 -361 279 0
-361 -362 -363 0
-361 362 363 0
-362 -32 -187 0
-362 32 187 0
-363 183 359 0
-364 -284 365 0
-364 -365 284 0
-365 -366 -367 0
-365 366 367 0
-366 -32 -191 0
-366 32 191 0
-367 187 363 0
-368 -289 369 0
-368 -369 289 0
-369 -370 -371 0
-369 370 371 0
-370 -32 -195 0
-370 32 195 0
-371 191 367 0
-372 -294 373 0
-372 -373 294 0
-373 -374 -375 0
-373 374 375 0
-374 -32 -199 0
-374 32 199 0
-375 195 371 0
-376 -8 377 0
-376 8 455 0
-377 378 0
-377 451 0
-378 379 0
-378 447 0
-379 380 0
-379 443 0
-38 31 10 0
-380 381 0
-380 439 0
-381 382 0
-381 435 0
-382 383 0
-382 431 0
-383 384 0
-383 427 0
-384 385 0
-384 423 0
-385 386 0
-385 419 0
-386 387 0
-386 415 0
-387 388 0
-387 411 0
-388 389 0
-388 407 0
-389 390 0
-389 403 0
-39 -40 41 0
-39 -41 40 0
-390 391 0
-390 399 0
-391 392 0
-391 395 0
-392 -221 393 0
-392 -393 221 0
-393 -394 -32 0
-393 394 32 0
-394 -31 0
-395 -225 396 0
-395 -396 225 0
-396 -397 -398 0
-396 397 398 0
-397 -37 0
-398 32 0
-398 394 0
-399 -229 400 0
-399 -400 229 0
-4 -5 6 0
-4 -6 5 0
-400 -401 -402 0
-400 401 402 0
-401 -43 0
-402 397 0
-402 398 0
-403 -234 404 0
-403 -404 234 0
-404 -405 -406 0
-404 405 406 0
-405 -49 0
-406 401 0
-406 402 0
-407 -239 408 0
-407 -408 239 0
-408 -409 -410 0
-408 409 410 0
-409 -55 0
-41 -42 -44 0
-41 42 44 0
-410 405 0
-410 406 0
-411 -244 412 0
-411 -412 244 0
-412 -413 -414 0
-412 413 414 0
-413 -61 0
-414 409 0
-414 410 0
-415 -249 416 0
-415 -416 249 0
-416 -417 -418 0
-416 417 418 0
-417 -67 0
-418 413 0
-418 414 0
-419 -254 420 0
-419 -420 254 0
-42 -43 -32 0
-42 43 32 0
-420 -421 -422 0
-420 421 422 0
-421 -73 0
-422 417 0
-422 418 0
-423 -259 424 0
-423 -424 259 0
-424 -425 -426 0
-424 425 426 0
-425 -79 0
-426 421 0
-426 422 0
-427 -264 428 0
-427 -428 264 0
-428 -429 -430 0
-428 429 430 0
-429 -85 0
-430 425 0
-430 426 0
-431 -269 432 0
-431 -432 269 0
-432 -433 -434 0
-432 433 434 0
-433 -91 0
-434 429 0
-434 430 0
-435 -274 436 0
-435 -436 274 0
-436 -437 -438 0
-436 437 438 0
-437 -97 0
-438 433 0
-438 434 0
-439 -279 440 0
-439 -440 279 0
-44 37 38 0
-440 -441 -442 0
-440 441 442 0
-441 -103 0
-442 437 0
-442 438 0
-443 -284 444 0
-443 -444 284 0
-444 -445 -446 0
-444 445 446 0
-445 -109 0
-446 441 0
-446 442 0
-447 -289 448 0
-447 -448 289 0
-448 -449 -450 0
-448 449 450 0
-449 -115 0
-45 -46 47 0
-45 -47 46 0
-450 445 0
-450 446 0
-451 -294 452 0
-451 -452 294 0
-452 -453 -454 0
-452 453 454 0
-453 -121 0
-454 449 0
-454 450 0
-455 456 0
-455 529 0
-456 457 0
-456 525 0
-457 458 0
-457 521 0
-458 459 0
-458 517 0
-459 460 0
-459 513 0
-460 461 0
-460 509 0
-461 462 0
-461 505 0
-462 463 0
-462 501 0
-463 464 0
-463 497 0
-464 465 0
-464 493 0
-465 466 0
-465 489 0
-466 467 0
-466 485 0
-467 468 0
-467 481 0
-468 469 0
-468 477 0
-469 470 0
-469 473 0
-47 -48 -50 0
-47 48 50 0
-470 -221 471 0
-470 -471 221 0
-471 -472 -10 0
-471 472 10 0
-472 -393 -32 0
-472 393 32 0
-473 -225 474 0
-473 -474 225 0
-474 -475 -476 0
-474 475 476 0
-475 -396 -32 0
-475 396 32 0
-476 393 10 0
-477 -229 478 0
-477 -478 229 0
-478 -479 -480 0
-478 479 480 0
-479 -400 -32 0
-479 400 32 0
-48 -49 -32 0
-48 49 32 0
-480 396 476 0
-481 -234 482 0
-481 -482 234 0
-482 -483 -484 0
-482 483 484 0
-483 -404 -32 0
-483 404 32 0
-484 400 480 0
-485 -239 486 0
-485 -486 239 0
-486 -487 -488 0
-486 487 488 0
-487 -408 -32 0
-487 408 32 0
-488 404 484 0
-489 -244 490 0
-489 -490 244 0
-490 -491 -492 0
-490 491 492 0
-491 -412 -32 0
-491 412 32 0
-492 408 488 0
-493 -249 494 0
-493 -494 249 0
-494 -495 -496 0
-494 495 496 0
-495 -416 -32 0
-495 416 32 0
-496 412 492 0
-497 -254 498 0
-497 -498 254 0
-498 -499 -500 0
-498 499 500 0
-499 -420 -32 0
-499 420 32 0
-50 43 44 0
-500 416 496 0
-501 -259 502 0
-501 -502 259 0
-502 -503 -504 0
-502 503 504 0
-503 -424 -32 0
-503 424 32 0
-504 420 500 0
-505 -264 506 0
-505 -506 264 0
-506 -507 -508 0
-506 507 508 0
-507 -428 -32 0
-507 428 32 0
-508 424 504 0
-509 -269 510 0
-509 -510 269 0
-51 -52 53 0
-51 -53 52 0
-510 -511 -512 0
-510 511 512 0
-511 -432 -32 0
-511 432 32 0
-512 428 508 0
-513 -274 514 0
-513 -514 274 0
-514 -515 -516 0
-514 515 516 0
-515 -436 -32 0
-515 436 32 0
-516 432 512 0
-517 -279 518 0
-517 -518 279 0
-518 -519 -520 0
-518 519 520 0
-519 -440 -32 0
-519 440 32 0
-520 436 516 0
-521 -284 522 0
-521 -522 284 0
-522 -523 -524 0
-522 523 524 0
-523 -444 -32 0
-523 444 32 0
-524 440 520 0
-525 -289 526 0
-525 -526 289 0
-526 -527 -528 0
-526 527 528 0
-527 -448 -32 0
-527 448 32 0
-528 444 524 0
-529 -294 530 0
-529 -530 294 0
-53 -54 -56 0
-53 54 56 0
-530 -531 -532 0
-530 531 532 0
-531 -452 -32 0
-531 452 32 0
-532 448 528 0
-533 534 0
-533 578 0
-534 535 0
-534 576 0
-535 536 0
-535 574 0
-536 537 0
-536 572 0
-537 538 0
-537 570 0
-538 539 0
-538 568 0
-539 540 0
-539 566 0
-54 -55 -32 0
-54 55 32 0
-540 541 0
-540 564 0
-541 542 0
-541 562 0
-542 543 0
-542 560 0
-543 544 0
-543 558 0
-544 545 0
-544 556 0
-545 546 0
-545 554 0
-546 547 0
-546 552 0
-547 548 0
-547 550 0
-548 -221 549 0
-548 -549 221 0
-550 -225 551 0
-550 -551 225 0
-552 -229 553 0
-552 -553 229 0
-554 -234 555 0
-554 -555 234 0
-556 -239 557 0
-556 -557 239 0
-558 -244 559 0
-558 -559 244 0
-56 49 50 0
-560 -249 561 0
-560 -561 249 0
-562 -254 563 0
-562 -563 254 0
-564 -259 565 0
-564 -565 259 0
-566 -264 567 0
-566 -567 264 0
-568 -269 569 0
-568 -569 269 0
-57 -58 59 0
-57 -59 58 0
-570 -274 571 0
-570 -571 274 0
-572 -279 573 0
-572 -573 279 0
-574 -284 575 0
-574 -575 284 0
-576 -289 577 0
-576 -577 289 0
-578 -294 579 0
-578 -579 294 0
-59 -60 -62 0
-59 60 62 0
-60 -61 -32 0
-60 61 32 0
-62 55 56 0
-63 -64 65 0
-63 -65 64 0
-65 -66 -68 0
-65 66 68 0
-66 -67 -32 0
-66 67 32 0
-68 61 62 0
-69 -70 71 0
-69 -71 70 0
-7 -8 11 0
-7 8 123 0
-71 -72 -74 0
-71 72 74 0
-72 -73 -32 0
-72 73 32 0
-74 67 68 0
-75 -76 77 0
-75 -77 76 0
-77 -78 -80 0
-77 78 80 0
-78 -79 -32 0
-78 79 32 0
-8 -10 9 0
-8 -9 10 0
-80 73 74 0
-81 -82 83 0
-81 -83 82 0
-83 -84 -86 0
-83 84 86 0
-84 -85 -32 0
-84 85 32 0
-86 79 80 0
-87 -88 89 0
-87 -89 88 0
-89 -90 -92 0
-89 90 92 0
-90 -91 -32 0
-90 91 32 0
-92 85 86 0
-93 -94 95 0
-93 -95 94 0
-95 -96 -98 0
-95 96 98 0
-96 -97 -32 0
-96 97 32 0
-98 91 92 0
-99 -100 101 0
-99 -101 100 0
1 -2 -202 0
1 -202 -533 0
1 0
1 2 -533 0
101 -102 104 0
101 -104 102 0
102 -103 32 0
102 -32 103 0
104 -97 0
104 -98 0
105 -106 -107 0
105 106 107 0
107 -108 110 0
107 -110 108 0
108 -109 32 0
108 -32 109 0
11 12 0
110 -103 0
110 -104 0
111 -112 -113 0
111 112 113 0
113 -114 116 0
113 -116 114 0
114 -115 32 0
114 -32 115 0
116 -109 0
116 -110 0
117 -118 -119 0
117 118 119 0
119 -120 122 0
119 -122 120 0
12 -13 -117 0
120 -121 32 0
120 -32 121 0
122 -115 0
122 -116 0
123 124 0
124 -125 -198 0
125 -126 -194 0
126 -127 -190 0
127 -128 -186 0
128 -129 -182 0
129 -130 -178 0
13 -14 -111 0
130 -131 -174 0
131 -132 -170 0
132 -133 -166 0
133 -134 -162 0
134 -135 -158 0
135 -136 -154 0
136 -137 -150 0
137 -138 -146 0
138 -139 -142 0
139 -28 -140 0
139 28 140 0
14 -15 -105 0
140 -10 141 0
140 -141 10 0
141 -29 32 0
141 -32 29 0
142 -34 -143 0
142 34 143 0
143 -144 145 0
143 -145 144 0
144 -10 35 0
144 -35 10 0
145 -10 0
145 -29 0
146 -40 -147 0
146 40 147 0
147 -148 149 0
147 -149 148 0
148 -10 41 0
148 -41 10 0
149 -35 -145 0
15 -16 -99 0
150 -46 -151 0
150 46 151 0
151 -152 153 0
151 -153 152 0
152 -10 47 0
152 -47 10 0
153 -41 -149 0
154 -52 -155 0
154 52 155 0
155 -156 157 0
155 -157 156 0
156 -10 53 0
156 -53 10 0
157 -47 -153 0
158 -58 -159 0
158 58 159 0
159 -160 161 0
159 -161 160 0
16 -17 -93 0
160 -10 59 0
160 -59 10 0
161 -53 -157 0
162 -64 -163 0
162 64 163 0
163 -164 165 0
163 -165 164 0
164 -10 65 0
164 -65 10 0
165 -59 -161 0
166 -70 -167 0
166 70 167 0
167 -168 169 0
167 -169 168 0
168 -10 71 0
168 -71 10 0
169 -65 -165 0
17 -18 -87 0
170 -76 -171 0
170 76 171 0
171 -172 173 0
171 -173 172 0
172 -10 77 0
172 -77 10 0
173 -71 -169 0
174 -82 -175 0
174 82 175 0
175 -176 177 0
175 -177 176 0
176 -10 83 0
176 -83 10 0
177 -77 -173 0
178 -88 -179 0
178 88 179 0
179 -180 181 0
179 -181 180 0
18 -19 -81 0
180 -10 89 0
180 -89 10 0
181 -83 -177 0
182 -94 -183 0
182 94 183 0
183 -184 185 0
183 -185 184 0
184 -10 95 0
184 -95 10 0
185 -89 -181 0
186 -100 -187 0
186 100 187 0
187 -188 189 0
187 -189 188 0
188 -10 101 0
188 -101 10 0
189 -95 -185 0
19 -20 -75 0
190 -106 -191 0
190 106 191 0
191 -192 193 0
191 -193 192 0
192 -10 107 0
192 -107 10 0
193 -101 -189 0
194 -112 -195 0
194 112 195 0
195 -196 197 0
195 -197 196 0
196 -10 113 0
196 -113 10 0
197 -107 -193 0
198 -118 -199 0
198 118 199 0
199 -200 201 0
199 -201 200 0
2 -3 0
2 -7 0
20 -21 -69 0
200 -10 119 0
200 -119 10 0
201 -113 -197 0
202 -203 -204 0
202 -204 -376 0
202 203 -376 0
203 -5 -10 0
203 5 10 0
204 -205 -298 0
204 -8 -205 0
204 8 -298 0
205 -206 -293 0
206 -207 -288 0
207 -208 -283 0
208 -209 -278 0
209 -210 -273 0
21 -22 -63 0
210 -211 -268 0
211 -212 -263 0
212 -213 -258 0
213 -214 -253 0
214 -215 -248 0
215 -216 -243 0
216 -217 -238 0
217 -218 -233 0
218 -219 -228 0
219 -220 -224 0
22 -23 -57 0
220 -221 -222 0
220 221 222 0
222 -10 223 0
222 -223 10 0
223 -29 32 0
223 -32 29 0
224 -225 -226 0
224 225 226 0
226 -145 227 0
226 -227 145 0
227 -32 35 0
227 -35 32 0
228 -229 -230 0
228 229 230 0
23 -24 -51 0
230 -231 232 0
230 -232 231 0
231 -32 41 0
231 -41 32 0
232 -145 0
232 -35 0
233 -234 -235 0
233 234 235 0
235 -236 237 0
235 -237 236 0
236 -32 47 0
236 -47 32 0
237 -232 0
237 -41 0
238 -239 -240 0
238 239 240 0
24 -25 -45 0
240 -241 242 0
240 -242 241 0
241 -32 53 0
241 -53 32 0
242 -237 0
242 -47 0
243 -244 -245 0
243 244 245 0
245 -246 247 0
245 -247 246 0
246 -32 59 0
246 -59 32 0
247 -242 0
247 -53 0
248 -249 -250 0
248 249 250 0
25 -26 -39 0
250 -251 252 0
250 -252 251 0
251 -32 65 0
251 -65 32 0
252 -247 0
252 -59 0
253 -254 -255 0
253 254 255 0
255 -256 257 0
255 -257 256 0
256 -32 71 0
256 -71 32 0
257 -252 0
257 -65 0
258 -259 -260 0
258 259 260 0
26 -27 -33 0
260 -261 262 0
260 -262 261 0
261 -32 77 0
261 -77 32 0
262 -257 0
262 -71 0
263 -264 -265 0
263 264 265 0
265 -266 267 0
265 -267 266 0
266 -32 83 0
266 -83 32 0
267 -262 0
267 -77 0
268 -269 -270 0
268 269 270 0
27 -28 -29 0
27 28 29 0
270 -271 272 0
270 -272 271 0
271 -32 89 0
271 -89 32 0
272 -267 0
272 -83 0
273 -274 -275 0
273 274 275 0
275 -276 277 0
275 -277 276 0
276 -32 95 0
276 -95 32 0
277 -272 0
277 -89 0
278 -279 -280 0
278 279 280 0
280 -281 282 0
280 -282 281 0
281 -101 32 0
281 -32 101 0
282 -277 0
282 -95 0
283 -284 -285 0
283 284 285 0
285 -286 287 0
285 -287 286 0
286 -107 32 0
286 -32 107 0
287 -101 0
287 -282 0
288 -289 -290 0
288 289 290 0
29 -10 30 0
29 -30 10 0
290 -291 292 0
290 -292 291 0
291 -113 32 0
291 -32 113 0
292 -107 0
292 -287 0
293 -294 -295 0
293 294 295 0
295 -296 297 0
295 -297 296 0
296 -119 32 0
296 -32 119 0
297 -113 0
297 -292 0
298 -299 -372 0
299 -300 -368 0
3 4 0
30 -31 32 0
30 -32 31 0
300 -301 -364 0
301 -302 -360 0
302 -303 -356 0
303 -304 -352 0
304 -305 -348 0
305 -306 -344 0
306 -307 -340 0
307 -308 -336 0
308 -309 -332 0
309 -310 -328 0
310 -311 -324 0
311 -312 -320 0
312 -313 -316 0
313 -221 -314 0
313 221 314 0
314 -10 315 0
314 -315 10 0
315 -140 32 0
315 -32 140 0
316 -225 -317 0
316 225 317 0
317 -318 319 0
317 -319 318 0
318 -143 32 0
318 -32 143 0
319 -10 0
319 -140 0
32 0
320 -229 -321 0
320 229 321 0
321 -322 323 0
321 -323 322 0
322 -147 32 0
322 -32 147 0
323 -143 0
323 -319 0
324 -234 -325 0
324 234 325 0
325 -326 327 0
325 -327 326 0
326 -151 32 0
326 -32 151 0
327 -147 0
327 -323 0
328 -239 -329 0
328 239 329 0
329 -330 331 0
329 -331 330 0
33 -34 -35 0
33 34 35 0
330 -155 32 0
330 -32 155 0
331 -151 0
331 -327 0
332 -244 -333 0
332 244 333 0
333 -334 335 0
333 -335 334 0
334 -159 32 0
334 -32 159 0
335 -155 0
335 -331 0
336 -249 -337 0
336 249 337 0
337 -338 339 0
337 -339 338 0
338 -163 32 0
338 -32 163 0
339 -159 0
339 -335 0
340 -254 -341 0
340 254 341 0
341 -342 343 0
341 -343 342 0
342 -167 32 0
342 -32 167 0
343 -163 0
343 -339 0
344 -259 -345 0
344 259 345 0
345 -346 347 0
345 -347 346 0
346 -171 32 0
346 -32 171 0
347 -167 0
347 -343 0
348 -264 -349 0
348 264 349 0
349 -350 351 0
349 -351 350 0
35 -36 38 0
35 -38 36 0
350 -175 32 0
350 -32 175 0
351 -171 0
351 -347 0
352 -269 -353 0
352 269 353 0
353 -354 355 0
353 -355 354 0
354 -179 32 0
354 -32 179 0
355 -175 0
355 -351 0
356 -274 -357 0
356 274 357 0
357 -358 359 0
357 -359 358 0
358 -183 32 0
358 -32 183 0
359 -179 0
359 -355 0
36 -32 37 0
36 -37 32 0
360 -279 -361 0
360 279 361 0
361 -362 363 0
361 -363 362 0
362 -187 32 0
362 -32 187 0
363 -183 0
363 -359 0
364 -284 -365 0
364 284 365 0
365 -366 367 0
365 -367 366 0
366 -191 32 0
366 -32 191 0
367 -187 0
367 -363 0
368 -289 -369 0
368 289 369 0
369 -370 371 0
369 -371 370 0
370 -195 32 0
370 -32 195 0
371 -191 0
371 -367 0
372 -294 -373 0
372 294 373 0
373 -374 375 0
373 -375 374 0
374 -199 32 0
374 -32 199 0
375 -195 0
375 -371 0
376 -377 -455 0
376 -8 -377 0
376 8 -455 0
377 -378 -451 0
378 -379 -447 0
379 -380 -443 0
38 -10 0
38 -31 0
380 -381 -439 0
381 -382 -435 0
382 -383 -431 0
383 -384 -427 0
384 -385 -423 0
385 -386 -419 0
386 -387 -415 0
387 -388 -411 0
388 -389 -407 0
389 -390 -403 0
39 -40 -41 0
39 40 41 0
390 -391 -399 0
391 -392 -395 0
392 -221 -393 0
392 221 393 0
393 -32 394 0
393 -394 32 0
394 31 0
395 -225 -396 0
395 225 396 0
396 -397 398 0
396 -398 397 0
397 37 0
398 -394 -32 0
399 -229 -400 0
399 229 400 0
4 -5 -6 0
4 5 6 0
400 -401 402 0
400 -402 401 0
401 43 0
402 -397 -398 0
403 -234 -404 0
403 234 404 0
404 -405 406 0
404 -406 405 0
405 49 0
406 -401 -402 0
407 -239 -408 0
407 239 408 0
408 -409 410 0
408 -410 409 0
409 55 0
41 -42 44 0
41 -44 42 0
410 -405 -406 0
411 -244 -412 0
411 244 412 0
412 -413 414 0
412 -414 413 0
413 61 0
414 -409 -410 0
415 -249 -416 0
415 249 416 0
416 -417 418 0
416 -418 417 0
417 67 0
418 -413 -414 0
419 -254 -420 0
419 254 420 0
42 -32 43 0
42 -43 32 0
420 -421 422 0
420 -422 421 0
421 73 0
422 -417 -418 0
423 -259 -424 0
423 259 424 0
424 -425 426 0
424 -426 425 0
425 79 0
426 -421 -422 0
427 -264 -428 0
427 264 428 0
428 -429 430 0
428 -430 429 0
429 85 0
430 -425 -426 0
431 -269 -432 0
431 269 432 0
432 -433 434 0
432 -434 433 0
433 91 0
434 -429 -430 0
435 -274 -436 0
435 274 436 0
436 -437 438 0
436 -438 437 0
437 97 0
438 -433 -434 0
439 -279 -440 0
439 279 440 0
44 -37 0
44 -38 0
440 -441 442 0
440 -442 441 0
441 103 0
442 -437 -438 0
443 -284 -444 0
443 284 444 0
444 -445 446 0
444 -446 445 0
445 109 0
446 -441 -442 0
447 -289 -448 0
447 289 448 0
448 -449 450 0
448 -450 449 0
449 115 0
45 -46 -47 0
45 46 47 0
450 -445 -446 0
451 -294 -452 0
451 294 452 0
452 -453 454 0
452 -454 453 0
453 121 0
454 -449 -450 0
455 -456 -529 0
456 -457 -525 0
457 -458 -521 0
458 -459 -517 0
459 -460 -513 0
460 -461 -509 0
461 -462 -505 0
462 -463 -501 0
463 -464 -497 0
464 -465 -493 0
465 -466 -489 0
466 -467 -485 0
467 -468 -481 0
468 -469 -477 0
469 -470 -473 0
47 -48 50 0
47 -50 48 0
470 -221 -471 0
470 221 471 0
471 -10 472 0
471 -472 10 0
472 -32 393 0
472 -393 32 0
473 -225 -474 0
473 225 474 0
474 -475 476 0
474 -476 475 0
475 -32 396 0
475 -396 32 0
476 -10 0
476 -393 0
477 -229 -478 0
477 229 478 0
478 -479 480 0
478 -480 479 0
479 -32 400 0
479 -400 32 0
48 -32 49 0
48 -49 32 0
480 -396 0
480 -476 0
481 -234 -482 0
481 234 482 0
482 -483 484 0
482 -484 483 0
483 -32 404 0
483 -404 32 0
484 -400 0
484 -480 0
485 -239 -486 0
485 239 486 0
486 -487 488 0
486 -488 487 0
487 -32 408 0
487 -408 32 0
488 -404 0
488 -484 0
489 -244 -490 0
489 244 490 0
490 -491 492 0
490 -492 491 0
491 -32 412 0
491 -412 32 0
492 -408 0
492 -488 0
493 -249 -494 0
493 249 494 0
494 -495 496 0
494 -496 495 0
495 -32 416 0
495 -416 32 0
496 -412 0
496 -492 0
497 -254 -498 0
497 254 498 0
498 -499 500 0
498 -500 499 0
499 -32 420 0
499 -420 32 0
50 -43 0
50 -44 0
500 -416 0
500 -496 0
501 -259 -502 0
501 259 502 0
502 -503 504 0
502 -504 503 0
503 -32 424 0
503 -424 32 0
504 -420 0
504 -500 0
505 -264 -506 0
505 264 506 0
506 -507 508 0
506 -508 507 0
507 -32 428 0
507 -428 32 0
508 -424 0
508 -504 0
509 -269 -510 0
509 269 510 0
51 -52 -53 0
51 52 53 0
510 -511 512 0
510 -512 511 0
511 -32 432 0
511 -432 32 0
512 -428 0
512 -508 0
513 -274 -514 0
513 274 514 0
514 -515 516 0
514 -516 515 0
515 -32 436 0
515 -436 32 0
516 -432 0
516 -512 0
517 -279 -518 0
517 279 518 0
518 -519 520 0
518 -520 519 0
519 -32 440 0
519 -440 32 0
520 -436 0
520 -516 0
521 -284 -522 0
521 284 522 0
522 -523 524 0
522 -524 523 0
523 -32 444 0
523 -444 32 0
524 -440 0
524 -520 0
525 -289 -526 0
525 289 526 0
526 -527 528 0
526 -528 527 0
527 -32 448 0
527 -448 32 0
528 -444 0
528 -524 0
529 -294 -530 0
529 294 530 0
53 -54 56 0
53 -56 54 0
530 -531 532 0
530 -532 531 0
531 -32 452 0
531 -452 32 0
532 -448 0
532 -528 0
533 -534 -578 0
534 -535 -576 0
535 -536 -574 0
536 -537 -572 0
537 -538 -570 0
538 -539 -568 0
539 -540 -566 0
54 -32 55 0
54 -55 32 0
540 -541 -564 0
541 -542 -562 0
542 -543 -560 0
543 -544 -558 0
544 -545 -556 0
545 -546 -554 0
546 -547 -552 0
547 -548 -550 0
548 -221 -549 0
548 221 549 0
550 -225 -551 0
550 225 551 0
552 -229 -553 0
552 229 553 0
554 -234 -555 0
554 234 555 0
556 -239 -557 0
556 239 557 0
558 -244 -559 0
558 244 559 0
56 -49 0
56 -50 0
560 -249 -561 0
560 249 561 0
562 -254 -563 0
562 254 563 0
564 -259 -565 0
564 259 565 0
566 -264 -567 0
566 264 567 0
568 -269 -569 0
568 269 569 0
57 -58 -59 0
57 58 59 0
570 -274 -571 0
570 274 571 0
572 -279 -573 0
572 279 573 0
574 -284 -575 0
574 284 575 0
576 -289 -577 0
576 289 577 0
578 -294 -579 0
578 294 579 0
59 -60 62 0
59 -62 60 0
60 -32 61 0
60 -61 32 0
62 -55 0
62 -56 0
63 -64 -65 0
63 64 65 0
65 -66 68 0
65 -68 66 0
66 -32 67 0
66 -67 32 0
68 -61 0
68 -62 0
69 -70 -71 0
69 70 71 0
7 -11 -123 0
7 -8 -11 0
7 8 -123 0
71 -72 74 0
71 -74 72 0
72 -32 73 0
72 -73 32 0
74 -67 0
74 -68 0
75 -76 -77 0
75 76 77 0
77 -78 80 0
77 -80 78 0
78 -32 79 0
78 -79 32 0
8 -9 -10 0
8 9 10 0
80 -73 0
80 -74 0
81 -82 -83 0
81 82 83 0
83 -84 86 0
83 -86 84 0
84 -32 85 0
84 -85 32 0
86 -79 0
86 -80 0
87 -88 -89 0
87 88 89 0
89 -90 92 0
89 -92 90 0
90 -32 91 0
90 -91 32 0
92 -85 0
92 -86 0
93 -94 -95 0
93 94 95 0
95 -96 98 0
95 -98 96 0
96 -32 97 0
96 -97 32 0
98 -91 0
98 -92 0
99 -100 -101 0
99 100 101 0
